
******************************************************************************
This program contains Ipopt, a library for large-scale nonlinear optimization.
 Ipopt is released as open source code under the Eclipse Public License (EPL).
         For more information visit http://projects.coin-or.org/Ipopt
******************************************************************************

This is Ipopt version 3.12.6, running with linear solver ma57.

Number of nonzeros in equality constraint Jacobian...:    23994
Number of nonzeros in inequality constraint Jacobian.:        0
Number of nonzeros in Lagrangian Hessian.............:    17996

Total number of variables............................:     6000
                     variables with only lower bounds:     2001
                variables with lower and upper bounds:     3999
                     variables with only upper bounds:        0
Total number of equality constraints.................:     4000
Total number of inequality constraints...............:        0
        inequality constraints with only lower bounds:        0
   inequality constraints with lower and upper bounds:        0
        inequality constraints with only upper bounds:        0

iter    objective    inf_pr   inf_du lg(mu)  ||d||  lg(rg) alpha_du alpha_pr  ls
   0  2.4000000e+00 1.99e+00 1.39e+00  -1.0 0.00e+00    -  0.00e+00 0.00e+00   0
   1  2.2168745e+00 1.90e+00 7.13e+00  -1.0 4.21e+02    -  5.22e-03 4.35e-02f  1
   2  2.0021687e+00 1.80e+00 6.75e+00  -1.0 4.08e+02    -  5.22e-02 5.26e-02f  1
   3  2.0000217e+00 1.80e+00 5.26e+01  -1.0 3.23e+02    -  1.77e-02 6.66e-04f  1
   4  2.0000002e+00 1.75e+00 1.03e+02  -1.0 2.76e+01    -  3.09e-04 2.78e-02f  1
   5  2.0000028e+00 1.49e+00 7.68e+02  -1.0 4.75e+01    -  2.15e-02 1.51e-01f  1
   6  2.0000070e+00 1.26e+00 6.96e+02  -1.0 2.06e+01    -  1.28e-01 1.56e-01h  1
   7  2.0000206e+00 1.11e+00 6.84e+02  -1.0 2.38e+01    -  8.07e-02 1.16e-01h  1
   8  2.0040829e+00 1.04e+00 9.28e+02  -1.0 4.41e+01    -  3.29e-04 6.17e-02h  1
   9  2.1823306e+00 1.02e+00 8.23e+02  -1.0 7.40e+02    -  5.76e-04 2.41e-02h  1
iter    objective    inf_pr   inf_du lg(mu)  ||d||  lg(rg) alpha_du alpha_pr  ls
  10  2.3031643e+00 9.89e-01 7.81e+02  -1.0 4.52e+02    -  1.09e-01 2.67e-02h  1
  11  2.3489589e+00 9.89e-01 8.37e+02  -1.0 7.00e+03    -  6.22e-04 6.54e-04h  1
  12  2.3842652e+00 9.86e-01 8.35e+02  -1.0 1.20e+03    -  4.29e-03 2.95e-03h  1
  13  2.4178401e+00 9.82e-01 8.31e+02  -1.0 8.80e+02    -  5.37e-03 3.81e-03h  1
  14  2.4510066e+00 9.77e-01 8.26e+02  -1.0 6.90e+02    -  6.67e-03 4.80e-03h  1
  15  2.4850692e+00 9.71e-01 8.20e+02  -1.0 5.71e+02    -  8.01e-03 5.97e-03h  1
  16  2.5207494e+00 9.64e-01 8.13e+02  -1.0 4.70e+02    -  1.02e-02 7.60e-03h  1
  17  2.5245334e+00 9.63e-01 2.28e+03  -1.0 3.39e+02    -  1.03e-02 1.12e-03h  1
  18  2.5525886e+00 9.55e-01 2.30e+03  -1.0 3.55e+02    -  3.05e-03 7.91e-03h  1
  19  2.5799383e+00 9.47e-01 2.29e+03  -1.0 3.10e+02    -  7.51e-03 8.81e-03h  1
iter    objective    inf_pr   inf_du lg(mu)  ||d||  lg(rg) alpha_du alpha_pr  ls
  20  2.5947172e+00 9.42e-01 2.28e+03  -1.0 2.73e+02    -  4.99e-03 5.42e-03f  1
  21  2.6162788e+00 9.34e-01 2.30e+03  -1.0 2.67e+02    -  3.77e-03 8.08e-03f  1
  22  2.6392865e+00 9.26e-01 2.25e+03  -1.0 2.52e+02    -  1.20e-02 9.14e-03h  1
  23  2.6571948e+00 9.19e-01 2.25e+03  -1.0 2.49e+02    -  5.55e-03 7.19e-03f  1
  24  2.6850869e+00 9.09e-01 2.25e+03  -1.0 2.44e+02    -  6.94e-03 1.14e-02h  1
  25  2.7060628e+00 9.00e-01 2.20e+03  -1.0 2.28e+02    -  1.43e-02 9.20e-03h  1
  26  2.7295662e+00 8.91e-01 2.20e+03  -1.0 2.35e+02    -  6.33e-03 1.00e-02f  1
  27  2.7556583e+00 8.81e-01 2.18e+03  -1.0 2.26e+02    -  1.13e-02 1.16e-02f  1
  28  2.7813812e+00 8.70e-01 2.11e+03  -1.0 2.18e+02    -  1.89e-02 1.18e-02f  1
  29  2.8113488e+00 8.59e-01 2.10e+03  -1.0 2.31e+02    -  9.38e-03 1.30e-02f  1
iter    objective    inf_pr   inf_du lg(mu)  ||d||  lg(rg) alpha_du alpha_pr  ls
  30  2.8356917e+00 8.49e-01 2.08e+03  -1.0 2.13e+02    -  1.12e-02 1.14e-02f  1
  31  2.8613785e+00 8.39e-01 2.02e+03  -1.0 2.07e+02    -  2.07e-02 1.24e-02f  1
  32  2.8901523e+00 8.28e-01 1.99e+03  -1.0 2.44e+02    -  1.38e-02 1.29e-02f  1
  33  2.9165339e+00 8.18e-01 1.96e+03  -1.0 2.29e+02    -  1.49e-02 1.26e-02f  1
  34  2.9434902e+00 8.07e-01 1.93e+03  -1.0 2.31e+02    -  1.45e-02 1.32e-02f  1
  35  2.9701638e+00 7.96e-01 1.90e+03  -1.0 2.26e+02    -  1.47e-02 1.36e-02f  1
  36  2.9968622e+00 7.85e-01 1.87e+03  -1.0 2.24e+02    -  1.48e-02 1.40e-02f  1
  37  3.0234182e+00 7.73e-01 1.84e+03  -1.0 2.21e+02    -  1.50e-02 1.44e-02f  1
  38  3.0498529e+00 7.62e-01 1.81e+03  -1.0 2.18e+02    -  1.52e-02 1.47e-02f  1
  39  3.0761573e+00 7.51e-01 1.79e+03  -1.0 2.17e+02    -  1.52e-02 1.50e-02f  1
iter    objective    inf_pr   inf_du lg(mu)  ||d||  lg(rg) alpha_du alpha_pr  ls
  40  3.1021914e+00 7.39e-01 1.76e+03  -1.0 2.17e+02    -  1.52e-02 1.52e-02f  1
  41  3.1278788e+00 7.28e-01 1.73e+03  -1.0 2.17e+02    -  1.51e-02 1.52e-02f  1
  42  3.1532731e+00 7.17e-01 1.71e+03  -1.0 2.20e+02    -  1.49e-02 1.52e-02f  1
  43  3.1770443e+00 7.06e-01 1.68e+03  -1.0 2.19e+02    -  1.49e-02 1.45e-02f  1
  44  3.2003296e+00 6.96e-01 1.66e+03  -1.0 2.20e+02    -  1.47e-02 1.44e-02f  1
  45  3.2246030e+00 6.86e-01 1.63e+03  -1.0 2.19e+02    -  1.48e-02 1.53e-02f  1
  46  3.2498025e+00 6.75e-01 1.61e+03  -1.0 2.11e+02    -  1.53e-02 1.63e-02f  1
  47  3.2755453e+00 6.63e-01 1.58e+03  -1.0 2.06e+02    -  1.58e-02 1.72e-02f  1
  48  3.3011591e+00 6.51e-01 1.56e+03  -1.0 1.97e+02    -  1.65e-02 1.77e-02f  1
  49  3.3272601e+00 6.39e-01 1.53e+03  -1.0 1.92e+02    -  1.70e-02 1.85e-02f  1
iter    objective    inf_pr   inf_du lg(mu)  ||d||  lg(rg) alpha_du alpha_pr  ls
  50  3.3538486e+00 6.27e-01 1.50e+03  -1.0 1.84e+02    -  1.76e-02 1.94e-02f  1
  51  3.3809675e+00 6.14e-01 1.48e+03  -1.0 1.75e+02    -  1.84e-02 2.04e-02f  1
  52  3.4086375e+00 6.01e-01 1.45e+03  -1.0 1.68e+02    -  1.93e-02 2.15e-02f  1
  53  3.4370118e+00 5.87e-01 1.42e+03  -1.0 1.61e+02    -  2.02e-02 2.27e-02f  1
  54  3.4661845e+00 5.73e-01 1.39e+03  -1.0 1.54e+02    -  2.13e-02 2.41e-02f  1
  55  3.4963121e+00 5.58e-01 1.36e+03  -1.0 1.45e+02    -  2.25e-02 2.58e-02f  1
  56  3.5275107e+00 5.43e-01 1.33e+03  -1.0 1.36e+02    -  2.40e-02 2.77e-02f  1
  57  3.5598360e+00 5.27e-01 1.30e+03  -1.0 1.28e+02    -  2.57e-02 2.98e-02f  1
  58  3.5936894e+00 5.10e-01 1.27e+03  -1.0 1.20e+02    -  2.75e-02 3.24e-02f  1
  59  3.6290770e+00 4.92e-01 1.23e+03  -1.0 1.10e+02    -  2.99e-02 3.54e-02f  1
iter    objective    inf_pr   inf_du lg(mu)  ||d||  lg(rg) alpha_du alpha_pr  ls
  60  3.6665292e+00 4.72e-01 1.20e+03  -1.0 1.02e+02    -  3.27e-02 3.91e-02f  1
  61  3.7063414e+00 4.52e-01 1.16e+03  -1.0 9.35e+01    -  3.60e-02 4.37e-02f  1
  62  3.7490113e+00 4.29e-01 1.12e+03  -1.0 8.64e+01    -  4.02e-02 4.94e-02f  1
  63  3.7955260e+00 4.05e-01 1.07e+03  -1.0 8.15e+01    -  4.55e-02 5.71e-02f  1
  64  3.8457868e+00 3.78e-01 1.02e+03  -1.0 7.62e+01    -  5.28e-02 6.60e-02f  1
  65  3.9003822e+00 3.49e-01 9.67e+02  -1.0 7.09e+01    -  6.23e-02 7.71e-02f  1
  66  3.9599386e+00 3.17e-01 9.01e+02  -1.0 6.54e+01    -  7.53e-02 9.11e-02f  1
  67  4.0266629e+00 2.82e-01 8.25e+02  -1.0 5.97e+01    -  9.40e-02 1.12e-01f  1
  68  4.1029983e+00 2.42e-01 7.31e+02  -1.0 5.36e+01    -  1.24e-01 1.43e-01f  1
  69  4.1948370e+00 1.94e-01 6.09e+02  -1.0 4.71e+01    -  1.78e-01 1.95e-01f  1
iter    objective    inf_pr   inf_du lg(mu)  ||d||  lg(rg) alpha_du alpha_pr  ls
  70  4.3190225e+00 1.34e-01 4.32e+02  -1.0 4.02e+01    -  3.05e-01 3.09e-01f  1
  71  4.5478815e+00 4.20e-02 2.07e+02  -1.0 3.33e+01    -  5.85e-01 6.88e-01f  1
  72  4.8604780e+00 1.02e-04 1.62e+02  -1.0 3.13e+01    -  5.98e-01 1.00e+00f  1
  73  5.4549464e+00 1.63e-04 4.86e+01  -1.0 5.94e+01    -  7.00e-01 1.00e+00f  1
  74  7.0355264e+00 4.83e-04 5.94e+00  -1.0 1.58e+02    -  8.64e-01 1.00e+00f  1
  75  9.2245419e+00 2.88e-03 2.33e+01  -1.0 8.08e+03    -  9.75e-03 2.71e-02f  1
  76  9.2943113e+00 1.20e-04 2.69e+01  -1.0 6.98e+00  -2.0 1.00e+00 1.00e+00f  1
  77  1.4865589e+01 3.41e-03 2.85e+01  -1.0 5.57e+02    -  1.00e+00 1.00e+00f  1
  78  1.5004885e+01 2.14e-04 1.17e+01  -1.0 1.39e+01  -2.5 1.00e+00 1.00e+00f  1
  79  2.6089930e+01 5.40e-03 2.73e+01  -1.0 1.11e+03    -  1.00e+00 1.00e+00f  1
iter    objective    inf_pr   inf_du lg(mu)  ||d||  lg(rg) alpha_du alpha_pr  ls
  80  3.9790515e+01 7.52e-03 6.43e+01  -1.0 1.42e+03    -  1.00e+00 9.63e-01f  1
  81  4.3606097e+01 1.14e-03 1.49e+01  -1.0 3.82e+02    -  1.00e+00 1.00e+00f  1
  82  4.5471298e+01 5.10e-04 2.86e+00  -1.0 1.87e+02    -  1.00e+00 1.00e+00h  1
  83  4.5832942e+01 7.12e-06 1.97e-02  -1.0 3.62e+01    -  1.00e+00 1.00e+00h  1
  84  2.2519342e+01 5.82e-03 6.93e+01  -2.5 2.33e+03    -  6.90e-01 1.00e+00f  1
  85  1.4184392e+01 3.19e-03 1.10e+01  -2.5 8.33e+02    -  6.52e-01 1.00e+00f  1
  86  4.3320381e+00 4.91e-03 6.61e+00  -2.5 9.85e+02    -  5.41e-01 1.00e+00f  1
  87  8.2947430e+00 1.90e-03 3.33e+00  -2.5 7.93e+02    -  3.04e-01 5.00e-01h  2
  88  2.0178042e+00 4.65e-03 3.01e+00  -2.5 6.52e+03    -  8.95e-02 9.63e-02f  1
  89  8.0256062e+00 1.20e-03 1.87e+00  -2.5 6.01e+02    -  5.98e-01 1.00e+00h  1
iter    objective    inf_pr   inf_du lg(mu)  ||d||  lg(rg) alpha_du alpha_pr  ls
  90  5.0507324e+00 1.81e-03 6.10e-01  -2.5 2.97e+02    -  8.41e-01 1.00e+00f  1
  91  6.2525597e+00 4.62e-04 4.25e-01  -2.5 1.20e+02    -  7.25e-01 1.00e+00h  1
  92  6.1835885e+00 1.73e-05 5.74e-02  -2.5 6.90e+00    -  1.00e+00 1.00e+00f  1
  93  6.1897517e+00 2.18e-07 1.05e-03  -2.5 6.16e-01    -  1.00e+00 1.00e+00h  1
  94  5.1472974e+00 1.49e-04 1.78e-01  -3.8 1.04e+02    -  9.17e-01 1.00e+00f  1
  95  4.6457463e+00 2.43e-04 6.84e-02  -3.8 5.02e+01    -  1.00e+00 1.00e+00h  1
  96  4.5417816e+00 1.37e-05 6.19e-03  -3.8 1.04e+01    -  1.00e+00 1.00e+00h  1
  97  4.5432229e+00 6.26e-07 1.24e-05  -3.8 1.60e-01    -  1.00e+00 1.00e+00h  1
  98  4.3204417e+00 4.43e-05 2.22e-02  -5.7 2.26e+01    -  8.04e-01 9.86e-01f  1
  99  4.2929304e+00 1.99e-05 8.45e-03  -5.7 3.79e+00    -  7.03e-01 7.26e-01h  1
iter    objective    inf_pr   inf_du lg(mu)  ||d||  lg(rg) alpha_du alpha_pr  ls
 100  4.2851490e+00 1.56e-05 5.86e-03  -5.7 3.49e+00    -  6.56e-01 6.80e-01h  1
 101  4.2824700e+00 6.01e-06 1.45e-02  -5.7 4.08e+00    -  6.83e-01 7.29e-01f  1
 102  4.2814634e+00 2.91e-06 5.62e-03  -5.7 3.13e+00    -  9.59e-01 9.85e-01h  1
 103  4.2814407e+00 4.45e-07 1.79e-05  -5.7 1.51e+00    -  1.00e+00 1.00e+00f  1
 104  4.2793679e+00 1.07e-06 2.07e-03  -8.6 2.87e+00    -  5.81e-01 5.63e-01f  1
 105  4.2787233e+00 7.49e-07 4.54e-03  -8.6 3.24e+00    -  4.19e-01 4.00e-01h  1
 106  4.2783412e+00 8.60e-07 5.54e-02  -8.6 3.95e+00    -  8.32e-01 3.95e-01h  1
 107  4.2778915e+00 1.20e-06 2.65e-02  -8.6 3.26e+00    -  9.51e-01 7.69e-01f  1
 108  4.2777585e+00 1.42e-07 5.53e-04  -8.6 7.92e-01    -  1.00e+00 9.84e-01f  1
 109  4.2777564e+00 4.05e-11 2.13e-08  -8.6 2.96e-02    -  1.00e+00 1.00e+00f  1
iter    objective    inf_pr   inf_du lg(mu)  ||d||  lg(rg) alpha_du alpha_pr  ls
 110  4.2777532e+00 5.23e-11 7.99e-10  -9.0 1.50e-02    -  1.00e+00 1.00e+00h  1

Number of Iterations....: 110

                                   (scaled)                 (unscaled)
Objective...............:   4.2777531940497298e+00    4.2777531940497298e+00
Dual infeasibility......:   7.9912965339419854e-10    7.9912965339419854e-10
Constraint violation....:   5.2348195385670121e-11    5.2348195385670121e-11
Complementarity.........:   9.7750770380430823e-10    9.7750770380430823e-10
Overall NLP error.......:   9.7750770380430823e-10    9.7750770380430823e-10


Number of objective function evaluations             = 114
Number of objective gradient evaluations             = 111
Number of equality constraint evaluations            = 114
Number of inequality constraint evaluations          = 0
Number of equality constraint Jacobian evaluations   = 111
Number of inequality constraint Jacobian evaluations = 0
Number of Lagrangian Hessian evaluations             = 110
Total CPU secs in IPOPT (w/o function evaluations)   =      0.567
Total CPU secs in NLP function evaluations           =      0.363

EXIT: Optimal Solution Found.

************************ CUTEst statistics ************************


 Package used            :  IPOPT
 Problem                 :  DRUGDIS   
 # variables             =            6004
 # constraints           =            4000
 # objective functions   =        0.2260000E+03
 # objective gradients   =        0.1120000E+03
 # objective Hessians    =        0.1110000E+03
 # Hessian-vector prdct  =        0.0000000E+00
 # constraints functions =        0.2270000E+03
 # constraints gradients =        0.1130000E+03
 # constraints Hessians  =        0.1110000E+03
 Exit code               =               0
 Final f                 =   0.4277753E+01
 Set up time             =            0.56 seconds
 Solve time              =            0.95 seconds


******************************************************************

System Time =       0.9490000010 s.
